
letting r = 10
letting n = 11

letting demand =
        [[0,1,1,1,0,0,0,0,0,1,1],
         [0,0,0,0,0,0,1,1,0,0,0],
         [0,0,0,1,0,1,0,0,1,1,0],
         [0,0,0,0,0,0,0,0,0,0,0],
         [0,0,0,0,0,1,1,0,0,0,0],
         [0,0,0,0,0,0,1,1,0,0,0],
         [0,0,0,0,0,0,0,0,0,0,0],
         [0,0,0,0,0,0,0,0,0,0,1],
         [0,0,0,0,0,0,0,0,0,0,1],
         [0,0,0,0,0,0,0,0,0,0,0],
         [0,0,0,0,0,0,0,0,0,0,0]]


letting capacity_nodes be [1, 3, 4, 4, 3, 2, 2, 4, 3, 3]